X = 50;
Y = 50;
maxlen = 23;
rows = 	[|0, -1, -1, -1, -1, -1, -1, -1, -1, -1, -1, -1, -1, -1, -1, -1, -1, -1, -1, -1, -1, -1, -1
	 |1, 1, 1, 1, 1, 1, 1, 1, 1, 1, 1, 1, 1, -1, -1, -1, -1, -1, -1, -1, -1, -1, -1
	 |1, 1, 1, 1, 1, 1, 1, 1, 1, 0, 1, 1, 1, 1, 1, 1, 1, 1, 1, -1, -1, -1, -1
	 |1, 1, 1, 1, 1, 0, 1, 1, 1, 1, 1, -1, -1, -1, -1, -1, -1, -1, -1, -1, -1, -1, -1
	 |1, 1, 1, 1, 0, 1, 1, 1, 1, -1, -1, -1, -1, -1, -1, -1, -1, -1, -1, -1, -1, -1, -1
	 |1, 1, 1, 0, 1, 1, 1, -1, -1, -1, -1, -1, -1, -1, -1, -1, -1, -1, -1, -1, -1, -1, -1
	 |1, 1, 1, 1, 0, 1, 1, 1, 1, -1, -1, -1, -1, -1, -1, -1, -1, -1, -1, -1, -1, -1, -1
	 |1, 1, 1, 0, 1, 1, 1, -1, -1, -1, -1, -1, -1, -1, -1, -1, -1, -1, -1, -1, -1, -1, -1
	 |1, 1, 1, 0, 1, 1, 1, 1, 1, 1, 1, 1, 1, 1, 1, 0, 1, 1, 1, -1, -1, -1, -1
	 |1, 1, 1, 0, 1, 1, 1, 1, 1, 1, 1, 0, 1, 1, 1, 1, 1, 1, 1, 0, 1, 1, 1
	 |1, 1, 0, 1, 1, 1, 1, 0, 1, 1, 1, 1, 0, 1, 1, -1, -1, -1, -1, -1, -1, -1, -1
	 |1, 1, 0, 1, 1, 1, 0, 1, 1, 1, 0, 1, 1, -1, -1, -1, -1, -1, -1, -1, -1, -1, -1
	 |1, 1, 1, 0, 1, 1, 1, 0, 1, 1, 1, 0, 1, 1, 1, -1, -1, -1, -1, -1, -1, -1, -1
	 |1, 1, 0, 1, 1, 0, 1, 1, 0, 1, 1, -1, -1, -1, -1, -1, -1, -1, -1, -1, -1, -1, -1
	 |1, 1, 0, 1, 1, 0, 1, 1, 0, 1, 1, -1, -1, -1, -1, -1, -1, -1, -1, -1, -1, -1, -1
	 |1, 1, 0, 1, 1, 0, 1, 1, 0, 1, 1, -1, -1, -1, -1, -1, -1, -1, -1, -1, -1, -1, -1
	 |1, 1, 0, 1, 1, 0, 1, 1, 0, 1, 1, -1, -1, -1, -1, -1, -1, -1, -1, -1, -1, -1, -1
	 |1, 1, 0, 1, 1, 0, 1, 1, 0, 1, 1, -1, -1, -1, -1, -1, -1, -1, -1, -1, -1, -1, -1
	 |1, 1, 0, 1, 1, 0, 1, 1, 1, 1, 1, 1, 1, 1, 1, 0, 1, 1, 0, 1, 1, -1, -1
	 |1, 1, 0, 1, 1, 0, 1, 1, 1, 1, 1, 0, 1, 1, 1, 1, 1, 0, 1, 1, 0, 1, 1
	 |1, 1, 0, 1, 1, 0, 1, 1, 1, 0, 1, 1, 1, 0, 1, 1, 0, 1, 1, -1, -1, -1, -1
	 |1, 1, 0, 1, 1, 0, 1, 1, 1, 0, 1, 1, 1, 0, 1, 1, 0, 1, 1, -1, -1, -1, -1
	 |1, 1, 0, 1, 1, 0, 1, 1, 1, 0, 1, 1, 1, 0, 1, 1, 0, 1, 1, -1, -1, -1, -1
	 |1, 1, 0, 1, 1, 0, 1, 1, 0, 1, 1, 0, 1, 1, 0, 1, 1, -1, -1, -1, -1, -1, -1
	 |1, 1, 0, 1, 0, 1, 1, 0, 1, 1, 0, 1, 0, 1, 1, -1, -1, -1, -1, -1, -1, -1, -1
	 |1, 0, 1, 1, 0, 1, 1, 0, 1, 1, 0, 1, 1, 0, 1, -1, -1, -1, -1, -1, -1, -1, -1
	 |1, 1, 0, 1, 1, 0, 1, 0, 1, 0, 1, 1, 0, 1, 1, -1, -1, -1, -1, -1, -1, -1, -1
	 |1, 1, 0, 1, 1, 0, 1, 1, 0, 1, 1, 0, 1, 1, 0, 1, 1, -1, -1, -1, -1, -1, -1
	 |1, 1, 0, 1, 1, 0, 1, 1, 0, 1, 1, 0, 1, 1, 0, 1, 1, -1, -1, -1, -1, -1, -1
	 |1, 1, 0, 1, 1, 0, 1, 1, 0, 1, 1, 0, 1, 1, 0, 1, 1, -1, -1, -1, -1, -1, -1
	 |1, 1, 0, 1, 1, 0, 1, 1, 1, 0, 1, 1, 1, 0, 1, 1, 0, 1, 1, -1, -1, -1, -1
	 |1, 1, 0, 1, 1, 0, 1, 1, 1, 0, 1, 1, 1, 0, 1, 1, 0, 1, 1, -1, -1, -1, -1
	 |1, 1, 0, 1, 1, 0, 1, 1, 1, 0, 1, 1, 1, 0, 1, 1, 0, 1, 1, -1, -1, -1, -1
	 |1, 1, 0, 1, 1, 0, 1, 1, 1, 1, 1, 0, 1, 1, 1, 1, 1, 0, 1, 1, 0, 1, 1
	 |1, 1, 0, 1, 1, 0, 1, 1, 1, 1, 1, 1, 1, 1, 1, 0, 1, 1, 0, 1, 1, -1, -1
	 |1, 1, 0, 1, 1, 0, 1, 1, 0, 1, 1, -1, -1, -1, -1, -1, -1, -1, -1, -1, -1, -1, -1
	 |1, 1, 0, 1, 1, 1, 0, 1, 1, 1, 0, 1, 1, -1, -1, -1, -1, -1, -1, -1, -1, -1, -1
	 |1, 1, 0, 1, 1, 1, 0, 1, 1, 1, 0, 1, 1, -1, -1, -1, -1, -1, -1, -1, -1, -1, -1
	 |1, 1, 1, 0, 1, 1, 1, 1, 0, 1, 1, 1, 1, 0, 1, 1, 1, -1, -1, -1, -1, -1, -1
	 |1, 1, 0, 1, 1, 1, 1, 1, 1, 1, 0, 1, 1, 1, 1, 1, 1, 1, 0, 1, 1, -1, -1
	 |1, 1, 0, 1, 1, 1, 1, 1, 1, 1, 1, 1, 1, 1, 0, 1, 1, -1, -1, -1, -1, -1, -1
	 |1, 1, 1, 0, 1, 1, 1, -1, -1, -1, -1, -1, -1, -1, -1, -1, -1, -1, -1, -1, -1, -1, -1
	 |1, 1, 1, 0, 1, 1, 1, -1, -1, -1, -1, -1, -1, -1, -1, -1, -1, -1, -1, -1, -1, -1, -1
	 |1, 1, 1, 0, 1, 1, 1, -1, -1, -1, -1, -1, -1, -1, -1, -1, -1, -1, -1, -1, -1, -1, -1
	 |1, 1, 1, 1, 0, 1, 1, 1, 1, -1, -1, -1, -1, -1, -1, -1, -1, -1, -1, -1, -1, -1, -1
	 |1, 1, 1, 0, 1, 1, 1, -1, -1, -1, -1, -1, -1, -1, -1, -1, -1, -1, -1, -1, -1, -1, -1
	 |1, 1, 1, 1, 0, 1, 1, 1, 1, -1, -1, -1, -1, -1, -1, -1, -1, -1, -1, -1, -1, -1, -1
	 |1, 1, 1, 1, 1, 0, 1, 1, 1, 1, 1, -1, -1, -1, -1, -1, -1, -1, -1, -1, -1, -1, -1
	 |1, 1, 1, 1, 1, 1, 1, 1, 1, 0, 1, 1, 1, 1, 1, 1, 1, 1, 1, -1, -1, -1, -1
	 |1, 1, 1, 1, 1, 1, 1, 1, 1, 1, 1, 1, 1, -1, -1, -1, -1, -1, -1, -1, -1, -1, -1
	 |];
cols = 	[|1, 1, 1, 1, 1, 1, 1, 1, 1, 1, 1, 1, 1, -1, -1, -1, -1, -1, -1, -1, -1, -1, -1
	 |1, 1, 1, 1, 1, 1, 1, 1, 1, 0, 1, 1, 1, 1, 1, 1, 1, 1, 1, -1, -1, -1, -1
	 |1, 1, 1, 1, 1, 0, 1, 1, 1, 1, 1, -1, -1, -1, -1, -1, -1, -1, -1, -1, -1, -1, -1
	 |1, 1, 1, 1, 0, 1, 1, 1, 1, -1, -1, -1, -1, -1, -1, -1, -1, -1, -1, -1, -1, -1, -1
	 |1, 1, 1, 0, 1, 1, 1, -1, -1, -1, -1, -1, -1, -1, -1, -1, -1, -1, -1, -1, -1, -1, -1
	 |1, 1, 1, 1, 0, 1, 1, 1, 1, -1, -1, -1, -1, -1, -1, -1, -1, -1, -1, -1, -1, -1, -1
	 |1, 1, 1, 0, 1, 1, 1, -1, -1, -1, -1, -1, -1, -1, -1, -1, -1, -1, -1, -1, -1, -1, -1
	 |1, 1, 1, 0, 1, 1, 1, -1, -1, -1, -1, -1, -1, -1, -1, -1, -1, -1, -1, -1, -1, -1, -1
	 |1, 1, 1, 0, 1, 1, 1, -1, -1, -1, -1, -1, -1, -1, -1, -1, -1, -1, -1, -1, -1, -1, -1
	 |1, 1, 0, 1, 1, -1, -1, -1, -1, -1, -1, -1, -1, -1, -1, -1, -1, -1, -1, -1, -1, -1, -1
	 |1, 1, 0, 1, 1, 1, 1, 1, 1, 1, 1, 1, 1, 1, 0, 1, 1, -1, -1, -1, -1, -1, -1
	 |1, 1, 1, 0, 1, 1, 1, 1, 1, 1, 1, 0, 1, 1, 1, 1, 1, 1, 1, 0, 1, 1, 1
	 |1, 1, 0, 1, 1, 1, 1, 0, 1, 1, 1, 1, 0, 1, 1, -1, -1, -1, -1, -1, -1, -1, -1
	 |1, 1, 0, 1, 1, 1, 0, 1, 1, 1, 0, 1, 1, -1, -1, -1, -1, -1, -1, -1, -1, -1, -1
	 |1, 1, 0, 1, 1, 1, 0, 1, 1, 1, 0, 1, 1, -1, -1, -1, -1, -1, -1, -1, -1, -1, -1
	 |1, 1, 0, 1, 1, 0, 1, 1, 0, 1, 1, -1, -1, -1, -1, -1, -1, -1, -1, -1, -1, -1, -1
	 |1, 1, 0, 1, 1, 0, 1, 1, 0, 1, 1, -1, -1, -1, -1, -1, -1, -1, -1, -1, -1, -1, -1
	 |1, 1, 0, 1, 1, 0, 1, 1, 1, 1, 1, 1, 1, 1, 1, 0, 1, 1, 0, 1, 1, -1, -1
	 |1, 1, 0, 1, 1, 0, 1, 1, 1, 1, 1, 0, 1, 1, 1, 1, 1, 0, 1, 1, 0, 1, 1
	 |1, 1, 0, 1, 1, 0, 1, 1, 1, 0, 1, 1, 1, 0, 1, 1, 0, 1, 1, -1, -1, -1, -1
	 |1, 1, 0, 1, 1, 0, 1, 1, 1, 0, 1, 1, 1, 0, 1, 1, 0, 1, 1, -1, -1, -1, -1
	 |1, 1, 0, 1, 1, 0, 1, 1, 1, 0, 1, 1, 1, 0, 1, 1, 0, 1, 1, -1, -1, -1, -1
	 |1, 1, 0, 1, 1, 0, 1, 1, 0, 1, 1, 0, 1, 1, 0, 1, 1, -1, -1, -1, -1, -1, -1
	 |1, 1, 0, 1, 1, 0, 1, 1, 0, 1, 1, 0, 1, 1, 0, 1, 1, -1, -1, -1, -1, -1, -1
	 |1, 0, 1, 1, 0, 1, 1, 0, 1, 1, 0, 1, 1, 0, 1, -1, -1, -1, -1, -1, -1, -1, -1
	 |1, 1, 0, 1, 1, 0, 1, 0, 1, 0, 1, 1, 0, 1, 1, -1, -1, -1, -1, -1, -1, -1, -1
	 |1, 1, 0, 1, 0, 1, 1, 0, 1, 1, 0, 1, 0, 1, 1, -1, -1, -1, -1, -1, -1, -1, -1
	 |1, 1, 0, 1, 1, 0, 1, 1, 0, 1, 1, 0, 1, 1, 0, 1, 1, -1, -1, -1, -1, -1, -1
	 |1, 1, 0, 1, 1, 0, 1, 1, 0, 1, 1, 0, 1, 1, 0, 1, 1, -1, -1, -1, -1, -1, -1
	 |1, 1, 0, 1, 1, 0, 1, 1, 1, 0, 1, 1, 1, 0, 1, 1, 0, 1, 1, -1, -1, -1, -1
	 |1, 1, 0, 1, 1, 0, 1, 1, 1, 0, 1, 1, 1, 0, 1, 1, 0, 1, 1, -1, -1, -1, -1
	 |1, 1, 0, 1, 1, 0, 1, 1, 1, 0, 1, 1, 1, 0, 1, 1, 0, 1, 1, -1, -1, -1, -1
	 |1, 1, 0, 1, 1, 0, 1, 1, 1, 1, 1, 0, 1, 1, 1, 1, 1, 0, 1, 1, 0, 1, 1
	 |1, 1, 0, 1, 1, 0, 1, 1, 1, 1, 1, 1, 1, 1, 1, 0, 1, 1, 0, 1, 1, -1, -1
	 |1, 1, 0, 1, 1, 0, 1, 1, 0, 1, 1, -1, -1, -1, -1, -1, -1, -1, -1, -1, -1, -1, -1
	 |1, 1, 0, 1, 1, 0, 1, 1, 0, 1, 1, -1, -1, -1, -1, -1, -1, -1, -1, -1, -1, -1, -1
	 |1, 1, 0, 1, 1, 0, 1, 1, 0, 1, 1, -1, -1, -1, -1, -1, -1, -1, -1, -1, -1, -1, -1
	 |1, 1, 1, 0, 1, 1, 0, 1, 1, 0, 1, 1, 1, -1, -1, -1, -1, -1, -1, -1, -1, -1, -1
	 |1, 1, 0, 1, 1, 1, 0, 1, 1, 1, 0, 1, 1, -1, -1, -1, -1, -1, -1, -1, -1, -1, -1
	 |1, 1, 0, 1, 1, 1, 0, 1, 1, 1, 0, 1, 1, -1, -1, -1, -1, -1, -1, -1, -1, -1, -1
	 |1, 1, 1, 0, 1, 1, 1, 1, 0, 1, 1, 1, 1, 0, 1, 1, 1, -1, -1, -1, -1, -1, -1
	 |1, 1, 1, 0, 1, 1, 1, 1, 1, 1, 1, 0, 1, 1, 1, 1, 1, 1, 1, 0, 1, 1, 1
	 |1, 1, 1, 0, 1, 1, 1, 1, 1, 1, 1, 1, 1, 1, 1, 0, 1, 1, 1, -1, -1, -1, -1
	 |1, 1, 1, 1, 0, 1, 1, 1, 1, -1, -1, -1, -1, -1, -1, -1, -1, -1, -1, -1, -1, -1, -1
	 |1, 1, 1, 0, 1, 1, 1, -1, -1, -1, -1, -1, -1, -1, -1, -1, -1, -1, -1, -1, -1, -1, -1
	 |1, 1, 1, 1, 0, 1, 1, 1, 1, -1, -1, -1, -1, -1, -1, -1, -1, -1, -1, -1, -1, -1, -1
	 |1, 1, 1, 1, 1, 0, 1, 1, 1, 1, 1, -1, -1, -1, -1, -1, -1, -1, -1, -1, -1, -1, -1
	 |1, 1, 1, 1, 1, 1, 1, 1, 1, 0, 1, 1, 1, 1, 1, 1, 1, 1, 1, -1, -1, -1, -1
	 |1, 1, 1, 1, 1, 1, 1, 1, 1, 1, 1, 1, 1, -1, -1, -1, -1, -1, -1, -1, -1, -1, -1
	 |0, -1, -1, -1, -1, -1, -1, -1, -1, -1, -1, -1, -1, -1, -1, -1, -1, -1, -1, -1, -1, -1, -1
	 |];
